letting initialStacks = [19, 13, 42, 36, 35, 23, 4, 51, 29, 44, 30, 28, 2, 31, 20, 14, 22, 50, 24, 6, 48, 49, 15, 16, 21, 34, 25, 26, 32, 37, 33, 8, 27, 38, 45, 3, 12, 10, 46, 40, 9, 43, 17, 39, 11, 5, 47, 41, 7, 1, 18]
